experiments/knapsack_bounded/knapsack_bounded_20_4.mps
NAME
ROWS
 N  OBJ
 L  c1
 L  c2
 L  c3
 L  c4
 L  c5
 L  c6
 L  c7
 L  c8
 L  c9
 L  c10
 L  c11
 L  c12
 L  c13
 L  c14
 L  c15
 L  c16
 L  c17
 L  c18
 L  c19
 L  c20
 L  c21
COLUMNS
    MARKER    'MARKER'                 'INTORG'
    x[1]      c1        4
    x[1]      c2        1
    x[1]      OBJ       -355
    x[2]      c1        345
    x[2]      c3        1
    x[2]      OBJ       -977
    x[3]      c1        267
    x[3]      c4        1
    x[3]      OBJ       -775
    x[4]      c1        624
    x[4]      c5        1
    x[4]      OBJ       -392
    x[5]      c1        149
    x[5]      c6        1
    x[5]      OBJ       -378
    x[6]      c1        29
    x[6]      c7        1
    x[6]      OBJ       -654
    x[7]      c1        457
    x[7]      c8        1
    x[7]      OBJ       -871
    x[8]      c1        181
    x[8]      c9        1
    x[8]      OBJ       -31
    x[9]      c1        870
    x[9]      c10       1
    x[9]      OBJ       -691
    x[10]     c1        661
    x[10]     c11       1
    x[10]     OBJ       -648
    x[11]     c1        507
    x[11]     c12       1
    x[11]     OBJ       -806
    x[12]     c1        640
    x[12]     c13       1
    x[12]     OBJ       -538
    x[13]     c1        285
    x[13]     c14       1
    x[13]     OBJ       -932
    x[14]     c1        394
    x[14]     c15       1
    x[14]     OBJ       -889
    x[15]     c1        397
    x[15]     c16       1
    x[15]     OBJ       -223
    x[16]     c1        845
    x[16]     c17       1
    x[16]     OBJ       -720
    x[17]     c1        459
    x[17]     c18       1
    x[17]     OBJ       -248
    x[18]     c1        239
    x[18]     c19       1
    x[18]     OBJ       -310
    x[19]     c1        172
    x[19]     c20       1
    x[19]     OBJ       -855
    x[20]     c1        24
    x[20]     c21       1
    x[20]     OBJ       -551
    MARKER    'MARKER'                 'INTEND'
RHS
    rhs       c1        3774
    rhs       c2        5
    rhs       c3        3
    rhs       c4        10
    rhs       c5        2
    rhs       c6        4
    rhs       c7        7
    rhs       c8        4
    rhs       c9        7
    rhs       c10       9
    rhs       c11       2
    rhs       c12       4
    rhs       c13       5
    rhs       c14       3
    rhs       c15       3
    rhs       c16       10
    rhs       c17       3
    rhs       c18       9
    rhs       c19       7
    rhs       c20       3
    rhs       c21       6
RANGES
BOUNDS
 LO bounds    x[1]      0
 PL bounds    x[1]
 LO bounds    x[2]      0
 PL bounds    x[2]
 LO bounds    x[3]      0
 PL bounds    x[3]
 LO bounds    x[4]      0
 PL bounds    x[4]
 LO bounds    x[5]      0
 PL bounds    x[5]
 LO bounds    x[6]      0
 PL bounds    x[6]
 LO bounds    x[7]      0
 PL bounds    x[7]
 LO bounds    x[8]      0
 PL bounds    x[8]
 LO bounds    x[9]      0
 PL bounds    x[9]
 LO bounds    x[10]     0
 PL bounds    x[10]
 LO bounds    x[11]     0
 PL bounds    x[11]
 LO bounds    x[12]     0
 PL bounds    x[12]
 LO bounds    x[13]     0
 PL bounds    x[13]
 LO bounds    x[14]     0
 PL bounds    x[14]
 LO bounds    x[15]     0
 PL bounds    x[15]
 LO bounds    x[16]     0
 PL bounds    x[16]
 LO bounds    x[17]     0
 PL bounds    x[17]
 LO bounds    x[18]     0
 PL bounds    x[18]
 LO bounds    x[19]     0
 PL bounds    x[19]
 LO bounds    x[20]     0
 PL bounds    x[20]
ENDATA
